MMBP/Data_G_FJSP_Version/p14.fjs
50 12 1
6.0 2.0 1.0 37.0 2.0 36.0 2.0 3.0 13.0 4.0 25.0 2.0 5.0 38.0 6.0 43.0 2.0 7.0 32.0 8.0 30.0 2.0 9.0 14.0 10.0 15.0 2.0 11.0 15.0 12.0 16.0
6.0 2.0 1.0 40.0 2.0 29.0 2.0 3.0 16.0 4.0 23.0 2.0 5.0 37.0 6.0 39.0 2.0 7.0 26.0 8.0 29.0 2.0 9.0 11.0 10.0 11.0 2.0 11.0 10.0 12.0 19.0
6.0 2.0 1.0 38.0 2.0 32.0 2.0 3.0 17.0 4.0 13.0 2.0 5.0 42.0 6.0 33.0 2.0 7.0 33.0 8.0 29.0 2.0 9.0 12.0 10.0 12.0 2.0 11.0 9.0 12.0 15.0
6.0 2.0 1.0 26.0 2.0 35.0 2.0 3.0 12.0 4.0 10.0 2.0 5.0 36.0 6.0 43.0 2.0 7.0 29.0 8.0 28.0 2.0 9.0 14.0 10.0 12.0 2.0 11.0 10.0 12.0 6.0
6.0 2.0 1.0 44.0 2.0 29.0 2.0 3.0 21.0 4.0 10.0 2.0 5.0 41.0 6.0 45.0 2.0 7.0 35.0 8.0 30.0 2.0 9.0 13.0 10.0 13.0 2.0 11.0 10.0 12.0 9.0
6.0 2.0 1.0 26.0 2.0 26.0 2.0 3.0 20.0 4.0 12.0 2.0 5.0 36.0 6.0 34.0 2.0 7.0 33.0 8.0 32.0 2.0 9.0 10.0 10.0 11.0 2.0 11.0 6.0 12.0 13.0
6.0 2.0 1.0 29.0 2.0 26.0 2.0 3.0 12.0 4.0 17.0 2.0 5.0 40.0 6.0 34.0 2.0 7.0 27.0 8.0 28.0 2.0 9.0 11.0 10.0 11.0 2.0 11.0 7.0 12.0 11.0
6.0 2.0 1.0 20.0 2.0 40.0 2.0 3.0 14.0 4.0 16.0 2.0 5.0 42.0 6.0 44.0 2.0 7.0 34.0 8.0 35.0 2.0 9.0 13.0 10.0 14.0 2.0 11.0 19.0 12.0 8.0
6.0 2.0 1.0 26.0 2.0 43.0 2.0 3.0 12.0 4.0 22.0 2.0 5.0 41.0 6.0 41.0 2.0 7.0 29.0 8.0 35.0 2.0 9.0 11.0 10.0 11.0 2.0 11.0 10.0 12.0 6.0
6.0 2.0 1.0 23.0 2.0 28.0 2.0 3.0 20.0 4.0 10.0 2.0 5.0 37.0 6.0 43.0 2.0 7.0 33.0 8.0 32.0 2.0 9.0 12.0 10.0 13.0 2.0 11.0 18.0 12.0 6.0
6.0 2.0 1.0 35.0 2.0 27.0 2.0 3.0 17.0 4.0 11.0 2.0 5.0 35.0 6.0 37.0 2.0 7.0 31.0 8.0 33.0 2.0 9.0 13.0 10.0 10.0 2.0 11.0 9.0 12.0 13.0
6.0 2.0 1.0 45.0 2.0 36.0 2.0 3.0 16.0 4.0 20.0 2.0 5.0 45.0 6.0 31.0 2.0 7.0 31.0 8.0 30.0 2.0 9.0 10.0 10.0 13.0 2.0 11.0 5.0 12.0 12.0
6.0 2.0 1.0 30.0 2.0 36.0 2.0 3.0 23.0 4.0 10.0 2.0 5.0 42.0 6.0 34.0 2.0 7.0 33.0 8.0 31.0 2.0 9.0 11.0 10.0 10.0 2.0 11.0 17.0 12.0 13.0
6.0 2.0 1.0 24.0 2.0 21.0 2.0 3.0 22.0 4.0 23.0 2.0 5.0 39.0 6.0 42.0 2.0 7.0 32.0 8.0 28.0 2.0 9.0 11.0 10.0 12.0 2.0 11.0 17.0 12.0 16.0
6.0 2.0 1.0 25.0 2.0 31.0 2.0 3.0 21.0 4.0 11.0 2.0 5.0 35.0 6.0 42.0 2.0 7.0 31.0 8.0 30.0 2.0 9.0 13.0 10.0 13.0 2.0 11.0 20.0 12.0 13.0
6.0 2.0 1.0 37.0 2.0 33.0 2.0 3.0 22.0 4.0 11.0 2.0 5.0 33.0 6.0 32.0 2.0 7.0 27.0 8.0 30.0 2.0 9.0 14.0 10.0 13.0 2.0 11.0 7.0 12.0 9.0
6.0 2.0 1.0 40.0 2.0 31.0 2.0 3.0 19.0 4.0 19.0 2.0 5.0 43.0 6.0 32.0 2.0 7.0 28.0 8.0 27.0 2.0 9.0 14.0 10.0 13.0 2.0 11.0 18.0 12.0 7.0
6.0 2.0 1.0 35.0 2.0 44.0 2.0 3.0 20.0 4.0 15.0 2.0 5.0 35.0 6.0 38.0 2.0 7.0 28.0 8.0 31.0 2.0 9.0 11.0 10.0 14.0 2.0 11.0 14.0 12.0 13.0
6.0 2.0 1.0 37.0 2.0 42.0 2.0 3.0 11.0 4.0 22.0 2.0 5.0 40.0 6.0 39.0 2.0 7.0 25.0 8.0 30.0 2.0 9.0 11.0 10.0 15.0 2.0 11.0 17.0 12.0 7.0
6.0 2.0 1.0 41.0 2.0 44.0 2.0 3.0 20.0 4.0 17.0 2.0 5.0 30.0 6.0 45.0 2.0 7.0 27.0 8.0 27.0 2.0 9.0 14.0 10.0 14.0 2.0 11.0 12.0 12.0 19.0
6.0 2.0 1.0 35.0 2.0 24.0 2.0 3.0 16.0 4.0 16.0 2.0 5.0 42.0 6.0 31.0 2.0 7.0 32.0 8.0 33.0 2.0 9.0 15.0 10.0 12.0 2.0 11.0 9.0 12.0 15.0
6.0 2.0 1.0 23.0 2.0 38.0 2.0 3.0 21.0 4.0 25.0 2.0 5.0 38.0 6.0 44.0 2.0 7.0 34.0 8.0 26.0 2.0 9.0 13.0 10.0 14.0 2.0 11.0 13.0 12.0 9.0
6.0 2.0 1.0 26.0 2.0 23.0 2.0 3.0 24.0 4.0 18.0 2.0 5.0 36.0 6.0 35.0 2.0 7.0 31.0 8.0 25.0 2.0 9.0 11.0 10.0 12.0 2.0 11.0 7.0 12.0 10.0
6.0 2.0 1.0 34.0 2.0 42.0 2.0 3.0 24.0 4.0 17.0 2.0 5.0 35.0 6.0 40.0 2.0 7.0 32.0 8.0 28.0 2.0 9.0 13.0 10.0 12.0 2.0 11.0 16.0 12.0 11.0
6.0 2.0 1.0 22.0 2.0 33.0 2.0 3.0 15.0 4.0 13.0 2.0 5.0 42.0 6.0 39.0 2.0 7.0 30.0 8.0 33.0 2.0 9.0 14.0 10.0 12.0 2.0 11.0 19.0 12.0 9.0
6.0 2.0 1.0 41.0 2.0 33.0 2.0 3.0 13.0 4.0 10.0 2.0 5.0 43.0 6.0 36.0 2.0 7.0 31.0 8.0 31.0 2.0 9.0 12.0 10.0 11.0 2.0 11.0 8.0 12.0 16.0
6.0 2.0 1.0 39.0 2.0 32.0 2.0 3.0 21.0 4.0 20.0 2.0 5.0 42.0 6.0 39.0 2.0 7.0 35.0 8.0 32.0 2.0 9.0 11.0 10.0 15.0 2.0 11.0 14.0 12.0 7.0
6.0 2.0 1.0 27.0 2.0 20.0 2.0 3.0 23.0 4.0 13.0 2.0 5.0 33.0 6.0 37.0 2.0 7.0 31.0 8.0 31.0 2.0 9.0 13.0 10.0 11.0 2.0 11.0 6.0 12.0 12.0
6.0 2.0 1.0 39.0 2.0 22.0 2.0 3.0 12.0 4.0 23.0 2.0 5.0 36.0 6.0 34.0 2.0 7.0 35.0 8.0 27.0 2.0 9.0 12.0 10.0 14.0 2.0 11.0 6.0 12.0 16.0
6.0 2.0 1.0 21.0 2.0 27.0 2.0 3.0 25.0 4.0 17.0 2.0 5.0 36.0 6.0 33.0 2.0 7.0 34.0 8.0 34.0 2.0 9.0 12.0 10.0 13.0 2.0 11.0 20.0 12.0 13.0
6.0 2.0 1.0 28.0 2.0 28.0 2.0 3.0 24.0 4.0 15.0 2.0 5.0 33.0 6.0 34.0 2.0 7.0 25.0 8.0 26.0 2.0 9.0 12.0 10.0 14.0 2.0 11.0 11.0 12.0 8.0
6.0 2.0 1.0 39.0 2.0 41.0 2.0 3.0 13.0 4.0 12.0 2.0 5.0 40.0 6.0 39.0 2.0 7.0 27.0 8.0 26.0 2.0 9.0 12.0 10.0 13.0 2.0 11.0 19.0 12.0 14.0
6.0 2.0 1.0 40.0 2.0 22.0 2.0 3.0 16.0 4.0 13.0 2.0 5.0 34.0 6.0 37.0 2.0 7.0 32.0 8.0 29.0 2.0 9.0 14.0 10.0 11.0 2.0 11.0 7.0 12.0 5.0
6.0 2.0 1.0 31.0 2.0 44.0 2.0 3.0 16.0 4.0 21.0 2.0 5.0 33.0 6.0 40.0 2.0 7.0 25.0 8.0 34.0 2.0 9.0 12.0 10.0 14.0 2.0 11.0 6.0 12.0 8.0
6.0 2.0 1.0 27.0 2.0 45.0 2.0 3.0 19.0 4.0 15.0 2.0 5.0 34.0 6.0 33.0 2.0 7.0 33.0 8.0 30.0 2.0 9.0 12.0 10.0 14.0 2.0 11.0 19.0 12.0 13.0
6.0 2.0 1.0 24.0 2.0 27.0 2.0 3.0 14.0 4.0 12.0 2.0 5.0 43.0 6.0 37.0 2.0 7.0 35.0 8.0 28.0 2.0 9.0 13.0 10.0 13.0 2.0 11.0 8.0 12.0 13.0
6.0 2.0 1.0 41.0 2.0 35.0 2.0 3.0 14.0 4.0 18.0 2.0 5.0 31.0 6.0 40.0 2.0 7.0 29.0 8.0 29.0 2.0 9.0 12.0 10.0 15.0 2.0 11.0 11.0 12.0 14.0
6.0 2.0 1.0 32.0 2.0 28.0 2.0 3.0 15.0 4.0 16.0 2.0 5.0 45.0 6.0 43.0 2.0 7.0 25.0 8.0 26.0 2.0 9.0 11.0 10.0 15.0 2.0 11.0 19.0 12.0 16.0
6.0 2.0 1.0 29.0 2.0 24.0 2.0 3.0 23.0 4.0 24.0 2.0 5.0 34.0 6.0 39.0 2.0 7.0 32.0 8.0 35.0 2.0 9.0 14.0 10.0 11.0 2.0 11.0 12.0 12.0 14.0
6.0 2.0 1.0 24.0 2.0 35.0 2.0 3.0 15.0 4.0 17.0 2.0 5.0 40.0 6.0 35.0 2.0 7.0 30.0 8.0 27.0 2.0 9.0 11.0 10.0 13.0 2.0 11.0 13.0 12.0 9.0
6.0 2.0 1.0 28.0 2.0 40.0 2.0 3.0 21.0 4.0 23.0 2.0 5.0 40.0 6.0 33.0 2.0 7.0 29.0 8.0 28.0 2.0 9.0 14.0 10.0 13.0 2.0 11.0 17.0 12.0 17.0
6.0 2.0 1.0 43.0 2.0 41.0 2.0 3.0 15.0 4.0 15.0 2.0 5.0 38.0 6.0 37.0 2.0 7.0 29.0 8.0 27.0 2.0 9.0 12.0 10.0 14.0 2.0 11.0 16.0 12.0 5.0
6.0 2.0 1.0 27.0 2.0 42.0 2.0 3.0 17.0 4.0 21.0 2.0 5.0 40.0 6.0 33.0 2.0 7.0 26.0 8.0 28.0 2.0 9.0 14.0 10.0 13.0 2.0 11.0 18.0 12.0 20.0
6.0 2.0 1.0 32.0 2.0 29.0 2.0 3.0 14.0 4.0 16.0 2.0 5.0 39.0 6.0 41.0 2.0 7.0 35.0 8.0 31.0 2.0 9.0 12.0 10.0 12.0 2.0 11.0 9.0 12.0 5.0
6.0 2.0 1.0 28.0 2.0 40.0 2.0 3.0 21.0 4.0 14.0 2.0 5.0 39.0 6.0 34.0 2.0 7.0 32.0 8.0 29.0 2.0 9.0 13.0 10.0 15.0 2.0 11.0 12.0 12.0 11.0
6.0 2.0 1.0 43.0 2.0 25.0 2.0 3.0 11.0 4.0 18.0 2.0 5.0 44.0 6.0 43.0 2.0 7.0 25.0 8.0 31.0 2.0 9.0 11.0 10.0 10.0 2.0 11.0 7.0 12.0 9.0
6.0 2.0 1.0 42.0 2.0 25.0 2.0 3.0 21.0 4.0 24.0 2.0 5.0 41.0 6.0 37.0 2.0 7.0 33.0 8.0 28.0 2.0 9.0 14.0 10.0 14.0 2.0 11.0 19.0 12.0 17.0
6.0 2.0 1.0 31.0 2.0 40.0 2.0 3.0 21.0 4.0 12.0 2.0 5.0 37.0 6.0 32.0 2.0 7.0 33.0 8.0 32.0 2.0 9.0 10.0 10.0 12.0 2.0 11.0 20.0 12.0 6.0
6.0 2.0 1.0 38.0 2.0 26.0 2.0 3.0 19.0 4.0 11.0 2.0 5.0 43.0 6.0 37.0 2.0 7.0 32.0 8.0 27.0 2.0 9.0 10.0 10.0 11.0 2.0 11.0 12.0 12.0 5.0
6.0 2.0 1.0 31.0 2.0 21.0 2.0 3.0 22.0 4.0 22.0 2.0 5.0 38.0 6.0 35.0 2.0 7.0 32.0 8.0 34.0 2.0 9.0 13.0 10.0 13.0 2.0 11.0 12.0 12.0 9.0
