MMBP/Data_G/p14.txt
TABLE P(I,M)  Production time of order P on machine M (h)
1	2	3	4	5	6	7	8	9	10	11	12
1	37	36	13	25	38	43	32	30	14	15	15	16
2	40	29	16	23	37	39	26	29	11	11	10	19
3	38	32	17	13	42	33	33	29	12	12	9	15
4	26	35	12	10	36	43	29	28	14	12	10	6
5	44	29	21	10	41	45	35	30	13	13	10	9
6	26	26	20	12	36	34	33	32	10	11	6	13
7	29	26	12	17	40	34	27	28	11	11	7	11
8	20	40	14	16	42	44	34	35	13	14	19	8
9	26	43	12	22	41	41	29	35	11	11	10	6
10	23	28	20	10	37	43	33	32	12	13	18	6
11	35	27	17	11	35	37	31	33	13	10	9	13
12	45	36	16	20	45	31	31	30	10	13	5	12
13	30	36	23	10	42	34	33	31	11	10	17	13
14	24	21	22	23	39	42	32	28	11	12	17	16
15	25	31	21	11	35	42	31	30	13	13	20	13
16	37	33	22	11	33	32	27	30	14	13	7	9
17	40	31	19	19	43	32	28	27	14	13	18	7
18	35	44	20	15	35	38	28	31	11	14	14	13
19	37	42	11	22	40	39	25	30	11	15	17	7
20	41	44	20	17	30	45	27	27	14	14	12	19
21	35	24	16	16	42	31	32	33	15	12	9	15
22	23	38	21	25	38	44	34	26	13	14	13	9
23	26	23	24	18	36	35	31	25	11	12	7	10
24	34	42	24	17	35	40	32	28	13	12	16	11
25	22	33	15	13	42	39	30	33	14	12	19	9
26	41	33	13	10	43	36	31	31	12	11	8	16
27	39	32	21	20	42	39	35	32	11	15	14	7
28	27	20	23	13	33	37	31	31	13	11	6	12
29	39	22	12	23	36	34	35	27	12	14	6	16
30	21	27	25	17	36	33	34	34	12	13	20	13
31	28	28	24	15	33	34	25	26	12	14	11	8
32	39	41	13	12	40	39	27	26	12	13	19	14
33	40	22	16	13	34	37	32	29	14	11	7	5
34	31	44	16	21	33	40	25	34	12	14	6	8
35	27	45	19	15	34	33	33	30	12	14	19	13
36	24	27	14	12	43	37	35	28	13	13	8	13
37	41	35	14	18	31	40	29	29	12	15	11	14
38	32	28	15	16	45	43	25	26	11	15	19	16
39	29	24	23	24	34	39	32	35	14	11	12	14
40	24	35	15	17	40	35	30	27	11	13	13	9
41	28	40	21	23	40	33	29	28	14	13	17	17
42	43	41	15	15	38	37	29	27	12	14	16	5
43	27	42	17	21	40	33	26	28	14	13	18	20
44	32	29	14	16	39	41	35	31	12	12	9	5
45	28	40	21	14	39	34	32	29	13	15	12	11
46	43	25	11	18	44	43	25	31	11	10	7	9
47	42	25	21	24	41	37	33	28	14	14	19	17
48	31	40	21	12	37	32	33	32	10	12	20	6
49	38	26	19	11	43	37	32	27	10	11	12	5
50	31	21	22	22	38	35	32	34	13	13	12	9

TABLE RMK(M,K)
1	2	3	4	5	6
1*2	1					
3*4		1				
5*6			1			
7*8				1		
9*10					1	
11*12						1

PARAMETERS					
R(I)	1*50 0								
D(I)	1 1288,2 1272,3 1212,4 897,5 1405,6 1344,7 707,8 1014,9 1057,10 824,11 1240,12 1246, 13 793,14 633,15 949,16 753,17 1335,18 1479,19 547,20 1373,21 1217,22 1096,23 888,24 515, 25 887,26 1048,27 1238,28 1063,29 1308,30 1056,31 588,32 671,33 1253,34 1293,35 718,36 956, 37 951,38 1393,39 845,40 995,41 635,42 914,43 1210,44 602,45 947,46 1436,47 1255,48 915,49 1422,50 1204